
Gurobi 6.5.0 (linux64) logging started Sun Mar 20 20:38:13 2016


Gurobi 6.5.0 (linux64) logging started Sun Mar 20 20:42:56 2016


Gurobi 6.5.0 (linux64) logging started Sun Mar 20 20:45:33 2016


Gurobi 6.5.0 (linux64) logging started Sun Mar 20 20:46:48 2016


Gurobi 6.5.0 (linux64) logging started Sun Mar 20 21:50:58 2016

